data/mip_solutions/furman_sahinidis/transportation/10sp1_gurobi.sol
Elapsed time: 0.236472129822
Nodes explored: 281
Upper bound: 10.0
Lower bound: 10.0
y[0,0]=1
y[0,5]=1
y[1,0]=1
y[1,1]=1
y[2,2]=1
y[2,5]=1
y[3,4]=1
y[4,3]=1
y[4,4]=1
y[4,5]=1
q[0,4,0,4]=58530.0
q[0,4,5,8]=1108370.0
q[0,5,0,5]=-5.05350429703e-09
q[0,5,0,7]=578000.0
q[0,5,5,8]=88800.0
q[0,6,0,6]=166700.0
q[1,1,0,3]=144500.0
q[1,1,0,4]=67470.0
q[1,1,1,1]=11530.0
q[1,1,1,2]=576500.0
q[1,1,2,4]=-1.02921937792e-08
q[1,1,3,3]=-1.04773789644e-08
q[1,2,0,4]=192900.0
q[1,2,1,4]=807100.0
q[1,3,0,3]=-1.12448718537e-09
q[1,3,0,5]=578000.0
q[1,3,0,6]=14900.0
q[1,3,1,3]=807100.0
q[1,4,0,4]=692600.0
q[1,4,0,6]=107400.0
q[1,4,0,7]=-5.05350429703e-09
q[2,2,2,2]=800000.0
q[2,2,5,8]=600000.0
q[2,3,2,3]=1120000.0
q[2,3,2,7]=200000.0
q[2,3,2,8]=640000.0
q[2,3,5,8]=-3.54961109548e-08
q[2,4,2,4]=1120000.0
q[2,4,2,5]=640000.0
q[2,4,2,6]=-2.61934474111e-09
q[2,4,2,7]=200000.0
q[2,5,2,5]=-1.25728547573e-08
q[2,5,5,8]=1120000.0
q[2,6,2,6]=320000.0
q[2,6,2,7]=240000.0
q[2,7,2,8]=-1.25728547573e-08
q[2,7,5,8]=1120000.0
q[3,0,4,2]=527000.0
q[3,0,4,5]=425000.0
q[3,1,1,2]=-5.05350429703e-09
q[3,1,4,2]=-5.23868948221e-09
q[3,1,4,3]=654500.0
q[3,1,4,4]=144500.0
q[3,1,4,5]=153000.0
q[3,2,4,3]=1190000.0
q[3,3,4,4]=1666000.0
q[3,3,4,5]=-2.51457095146e-08
q[3,4,4,5]=476000.0
q[4,3,3,3]=1310400.0
q[4,3,5,8]=1041600.0
q[4,4,3,4]=2293200.0
q[4,4,4,4]=34000.0
q[4,4,5,8]=24800.0
q[4,5,3,5]=1310400.0
q[4,5,3,6]=33600.0
q[4,6,3,6]=621600.0
q[4,6,5,8]=50400.0
q[4,7,5,8]=1344000.0
